NAME: tsp30_17
COMMENT: 30-tsp problem (Padberg/Rinaldi)
TYPE: TSP
DIMENSION: 30
EDGE_WEIGHT_TYPE : EUC_2D
NODE_COORD_SECTION
1 2 11
2 32 15
3 1 14
4 7 25
5 22 27
6 16 12
7 8 29
8 31 29
9 34 28
10 24 27
11 28 15
12 8 5
13 12 15
14 36 16
15 25 14
16 9 20
17 36 16
18 28 26
19 28 13
20 11 7
21 22 3
22 8 24
23 32 25
24 25 4
25 9 7
26 38 15
27 3 29
28 8 33
29 9 30
30 34 6
